Minimize
  - 22 y_0 - 32 y_1 - y_2 - 20 y_3 - 29 y_5 - 10 y_6 - 19 y_7 - 36 y_8
   - 22 y_9 + 32 x_0_5 + 50 x_0_6 + 10 x_0_7 + x_0_9 + 63 x_1_2 + 65 x_1_4
   + 16 x_1_5 + 49 x_1_9 + 2 x_2_4 + 69 x_2_8 + 43 x_2_9 + 41 x_3_4
   + 52 x_3_6 + 14 x_3_9 + 59 x_4_5 + 20 x_4_6 + 71 x_4_8 + 52 x_5_6
   + 27 x_5_7 + 52 x_6_5 + 57 x_6_8 + 50 x_6_9 + 11 x_7_9 + 11 x_7_9
   + 11 x_7_9 + 11 x_7_9 + 11 x_7_9 + 11 x_7_9 + 11 x_7_9 + 11 x_7_9
   + 11 x_7_9 + 11 x_7_9 + 11 x_7_9 + 11 x_7_9 + 11 x_7_9 + 11 x_7_9
   + 11 x_7_9 + 11 x_7_9 + 11 x_7_9 + 11 x_7_9 + 11 x_7_9 + 11 x_7_9
   + 11 x_7_9 + 11 x_7_9 + 11 x_7_9 + 11 x_7_9 + 11 x_7_9 + 11 x_7_9
   + 11 x_7_9 + 11 x_7_9 + 11 x_7_9 + 11 x_7_9 + 11 x_7_9 + 11 x_7_9
   + 11 x_7_9 + 11 x_7_9 + 11 x_7_9 + 11 x_7_9 + 11 x_7_9 + 11 x_7_9
   + 11 x_7_9 + 11 x_7_9 + 11 x_7_9 + 11 x_7_9 + 11 x_7_9 + 11 x_7_9
   + 11 x_7_9 + 11 x_7_9 + 11 x_7_9 + 11 x_7_9 + 11 x_7_9 + 11 x_7_9
   + 11 x_7_9 + 11 x_7_9 + 11 x_7_9 + 11 x_7_9 + 11 x_7_9 + 11 x_7_9
   + 11 x_7_9 + 11 x_7_9 + 11 x_7_9 + 11 x_7_9 + 11 x_7_9 + 11 x_7_9
   + 11 x_7_9 + 11 x_7_9 + 11 x_7_9 + 11 x_7_9 + 11 x_7_9 + 11 x_7_9
   + 11 x_7_9 + 11 x_7_9 + 11 x_7_9 + 11 x_7_9 + 11 x_7_9 + 11 x_7_9
   + 11 x_7_9 + 11 x_7_9 + 11 x_7_9 + 11 x_7_9 + 11 x_7_9 + 11 x_7_9
   + 11 x_7_9 + 11 x_7_9 + 11 x_7_9 + 11 x_7_9 + 11 x_7_9 + 11 x_7_9
   + 11 x_7_9 + 11 x_7_9 + 11 x_7_9 + 11 x_7_9 + 11 x_7_9 + 11 x_7_9
   + 11 x_7_9 + 11 x_7_9 + 11 x_7_9 + 11 x_7_9 + 11 x_7_9 + 11 x_7_9
   + 11 x_7_9 + 11 x_7_9 + 11 x_7_9 + 11 x_7_9 + 11 x_7_9 + 11 x_7_9
   + 11 x_7_9 + 11 x_7_9 + 11 x_7_9 + 11 x_7_9 + 11 x_7_9 + 11 x_7_9
   + 11 x_7_9 + 11 x_7_9 + 11 x_7_9 + 11 x_7_9 + 11 x_7_9 + 11 x_7_9
   + 11 x_7_9 + 11 x_7_9 + 11 x_7_9 + 11 x_7_9 + 11 x_7_9 + 11 x_7_9
   + 11 x_7_9 + 11 x_7_9 + 11 x_7_9 + 11 x_7_9 + 11 x_7_9 + 11 x_7_9
   + 11 x_7_9 + 11 x_7_9 + 11 x_7_9 + 11 x_7_9 + 11 x_7_9 + 11 x_7_9
   + 11 x_7_9 + 11 x_7_9 + 11 x_7_9 + 11 x_7_9 + 11 x_7_9 + 11 x_7_9
   + 11 x_7_9 + 11 x_7_9 + 11 x_7_9 + 11 x_7_9 + 11 x_7_9 + 11 x_7_9
   + 11 x_7_9 + 11 x_7_9 + 11 x_7_9 + 11 x_7_9 + 11 x_7_9 + 11 x_7_9
   + 11 x_7_9 + 11 x_7_9 + 11 x_7_9 + 11 x_7_9 + 11 x_7_9 + 11 x_7_9
   + 11 x_7_9 + 11 x_7_9 + 11 x_7_9 + 11 x_7_9 + 11 x_7_9 + 11 x_7_9
   + 11 x_7_9 + 11 x_7_9 + 11 x_7_9 + 11 x_7_9 + 11 x_7_9 + 11 x_7_9
   + 11 x_7_9 + 11 x_7_9 + 11 x_7_9 + 11 x_7_9 + 11 x_7_9 + 11 x_7_9
   + 11 x_7_9 + 11 x_7_9 + 11 x_7_9 + 11 x_7_9 + 11 x_7_9 + 11 x_7_9
   + 11 x_7_9 + 11 x_7_9 + 11 x_7_9 + 11 x_7_9 + 11 x_7_9 + 11 x_7_9
   + 11 x_7_9 + 11 x_7_9 + 11 x_7_9 + 11 x_7_9 + 11 x_7_9 + 11 x_7_9
   + 11 x_7_9 + 11 x_7_9 + 11 x_7_9 + 11 x_7_9 + 11 x_7_9 + 11 x_7_9
   + 11 x_7_9 + 11 x_7_9 + 11 x_7_9 + 11 x_7_9 + 11 x_7_9 + 11 x_7_9
   + 11 x_7_9 + 11 x_7_9 + 11 x_7_9 + 11 x_7_9 + 11 x_7_9 + 11 x_7_9
   + 11 x_7_9 + 11 x_7_9 + 11 x_7_9 + 191 Constant
Subject To
 c_0: y_0 = 1
 c_1_0: y_0 + y_9 >= 1
 c_1_1: y_1 >= 1
 c_1_2: y_2 + y_4 >= 1
 c_1_3: y_3 >= 1
 c_1_4: y_2 + y_4 >= 1
 c_1_5: y_5 >= 1
 c_1_6: y_6 >= 1
 c_1_7: y_7 >= 1
 c_1_8: y_8 >= 1
 c_1_9: y_0 + y_9 >= 1
 c_2_0: - 2 y_0 + x_0_5 + x_0_6 + x_0_7 + x_0_9 = 0
 c_2_1: - 2 y_1 + x_1_2 + x_1_4 + x_1_5 + x_1_9 = 0
 c_2_2: - 2 y_2 + x_1_2 + x_2_4 + x_2_8 + x_2_9 = 0
 c_2_3: - 2 y_3 + x_3_4 + x_3_6 + x_3_9 = 0
 c_2_4: - 2 y_4 + x_1_4 + x_2_4 + x_3_4 + x_4_5 + x_4_6 + x_4_8 = 0
 c_2_5: - 2 y_5 + x_0_5 + x_1_5 + x_4_5 + x_5_7 + 2 x_6_5 = 0
 c_2_6: - 2 y_6 + x_0_6 + x_3_6 + x_4_6 + 2 x_6_5 + x_6_8 + x_6_9 = 0
 c_2_7: - 2 y_7 + x_0_7 + x_5_7 + 215 x_7_9 = 0
 c_2_8: - 2 y_8 + x_2_8 + x_4_8 + x_6_8 = 0
 c_2_9: - 2 y_9 + x_0_9 + x_1_9 + x_2_9 + x_3_9 + x_6_9 + 215 x_7_9 = 0
Bounds
 Constant = 1
Binaries
 y_0 y_1 y_2 y_3 y_4 y_5 y_6 y_7 y_8 y_9 x_0_5 x_0_6 x_0_7 x_0_9 x_1_2
 x_1_4 x_1_5 x_1_9 x_2_4 x_2_8 x_2_9 x_3_4 x_3_6 x_3_9 x_4_5 x_4_6 x_4_8
 x_5_6 x_5_7 x_6_5 x_6_8 x_6_9 x_7_9 x_7_9 x_7_9 x_7_9 x_7_9 x_7_9 x_7_9
 x_7_9 x_7_9 x_7_9 x_7_9 x_7_9 x_7_9 x_7_9 x_7_9 x_7_9 x_7_9 x_7_9 x_7_9
 x_7_9 x_7_9 x_7_9 x_7_9 x_7_9 x_7_9 x_7_9 x_7_9 x_7_9 x_7_9 x_7_9 x_7_9
 x_7_9 x_7_9 x_7_9 x_7_9 x_7_9 x_7_9 x_7_9 x_7_9 x_7_9 x_7_9 x_7_9 x_7_9
 x_7_9 x_7_9 x_7_9 x_7_9 x_7_9 x_7_9 x_7_9 x_7_9 x_7_9 x_7_9 x_7_9 x_7_9
 x_7_9 x_7_9 x_7_9 x_7_9 x_7_9 x_7_9 x_7_9 x_7_9 x_7_9 x_7_9 x_7_9 x_7_9
 x_7_9 x_7_9 x_7_9 x_7_9 x_7_9 x_7_9 x_7_9 x_7_9 x_7_9 x_7_9 x_7_9 x_7_9
 x_7_9 x_7_9 x_7_9 x_7_9 x_7_9 x_7_9 x_7_9 x_7_9 x_7_9 x_7_9 x_7_9 x_7_9
 x_7_9 x_7_9 x_7_9 x_7_9 x_7_9 x_7_9 x_7_9 x_7_9 x_7_9 x_7_9 x_7_9 x_7_9
 x_7_9 x_7_9 x_7_9 x_7_9 x_7_9 x_7_9 x_7_9 x_7_9 x_7_9 x_7_9 x_7_9 x_7_9
 x_7_9 x_7_9 x_7_9 x_7_9 x_7_9 x_7_9 x_7_9 x_7_9 x_7_9 x_7_9 x_7_9 x_7_9
 x_7_9 x_7_9 x_7_9 x_7_9 x_7_9 x_7_9 x_7_9 x_7_9 x_7_9 x_7_9 x_7_9 x_7_9
 x_7_9 x_7_9 x_7_9 x_7_9 x_7_9 x_7_9 x_7_9 x_7_9 x_7_9 x_7_9 x_7_9 x_7_9
 x_7_9 x_7_9 x_7_9 x_7_9 x_7_9 x_7_9 x_7_9 x_7_9 x_7_9 x_7_9 x_7_9 x_7_9
 x_7_9 x_7_9 x_7_9 x_7_9 x_7_9 x_7_9 x_7_9 x_7_9 x_7_9 x_7_9 x_7_9 x_7_9
 x_7_9 x_7_9 x_7_9 x_7_9 x_7_9 x_7_9 x_7_9 x_7_9 x_7_9 x_7_9 x_7_9 x_7_9
 x_7_9 x_7_9 x_7_9 x_7_9 x_7_9 x_7_9 x_7_9 x_7_9 x_7_9 x_7_9 x_7_9 x_7_9
 x_7_9 x_7_9 x_7_9 x_7_9 x_7_9 x_7_9 x_7_9 x_7_9 x_7_9 x_7_9 x_7_9 x_7_9
 x_7_9 x_7_9 x_7_9 x_7_9
End
